
  32    1
  10

   0   0   3 2 3 5 
   9   1   3 7 6 4 
   1   3   3 7 6 4 
   8   2   4 11 10 9 8 
   5   1   3 11 9 7 
   8   2   3 12 11 10 
   4   3   2 16 8 
  10   2   3 18 13 12 
   9   2   5 21 18 16 15 14 
   8   2   4 18 17 16 14 
   9   2   4 22 17 15 13 
   3   3   3 17 15 14 
   2   3   5 25 23 21 20 19 
   9   2   4 25 24 23 20 
   2   4   3 25 23 19 
   4   1   3 23 20 19 
   3   1   2 21 19 
   3   2   3 31 26 22 
   6   1   3 31 26 24 
   7   2   2 27 26 
   2   1   2 27 26 
   5   1   1 24 
   7   2   3 31 30 28 
   2   2   2 30 27 
   4   2   1 26 
   5   2   2 30 29 
   3   3   1 28 
   4   2   1 29 
   7   1   1 32
   3   2   1 32
   4   3   1 32
   0   0   0 
